c colouring generated by benchmark framework
p edge 188 3885
v 1 28
v 2 19
v 3 16
v 4 4
v 5 14
v 6 27
v 7 18
v 8 12
v 9 30
v 10 10
v 11 0
v 12 8
v 13 23
v 14 7
v 15 29
v 16 24
v 17 21
v 18 18
v 19 30
v 20 12
v 21 2
v 22 1
v 23 16
v 24 0
v 25 6
v 26 14
v 27 4
v 28 15
v 29 3
v 30 31
v 31 22
v 32 19
v 33 22
v 34 24
v 35 24
v 36 25
v 37 27
v 38 5
v 39 5
v 40 5
v 41 5
v 42 29
v 43 9
v 44 5
v 45 5
v 46 3
v 47 3
v 48 3
v 49 2
v 50 26
v 51 5
v 52 1
v 53 3
v 54 9
v 55 5
v 56 27
v 57 5
v 58 5
v 59 5
v 60 5
v 61 6
v 62 7
v 63 17
v 64 11
v 65 15
v 66 13
v 67 31
v 68 7
v 69 7
v 70 11
v 71 17
v 72 8
v 73 8
v 74 23
v 75 7
v 76 20
v 77 7
v 78 27
v 79 8
v 80 9
v 81 10
v 82 11
v 83 7
v 84 23
v 85 8
v 86 9
v 87 13
v 88 23
v 89 10
v 90 20
v 91 11
v 92 11
v 93 26
v 94 13
v 95 13
v 96 23
v 97 27
v 98 11
v 99 24
v 100 25
v 101 20
v 102 20
v 103 20
v 104 22
v 105 20
v 106 20
v 107 20
v 108 20
v 109 14
v 110 24
v 111 25
v 112 20
v 113 22
v 114 24
v 115 29
v 116 27
v 117 25
v 118 22
v 119 20
v 120 20
v 121 24
v 122 24
v 123 25
v 124 24
v 125 7
v 126 13
v 127 28
v 128 25
v 129 22
v 130 27
v 131 20
v 132 27
v 133 25
v 134 20
v 135 22
v 136 27
v 137 20
v 138 20
v 139 17
v 140 25
v 141 5
v 142 26
v 143 20
v 144 22
v 145 25
v 146 25
v 147 22
v 148 20
v 149 20
v 150 9
v 151 24
v 152 19
v 153 14
v 154 22
v 155 22
v 156 22
v 157 22
v 158 22
v 159 20
v 160 25
v 161 11
v 162 13
v 163 5
v 164 31
v 165 17
v 166 11
v 167 25
v 168 7
v 169 13
v 170 10
v 171 17
v 172 11
v 173 9
v 174 7
v 175 8
v 176 5
v 177 7
v 178 5
v 179 23
v 180 26
v 181 16
v 182 20
v 183 6
v 184 6
v 185 8
v 186 5
v 187 5
v 188 11
